(set-info :smt-lib-version 2.6)
(set-info :category "crafted")
(set-logic QF_FF)
(define-sort FF0 () (_ FiniteField 52435875175126190479447740508185965837690552500527637822603658699938581184513))
(declare-fun out_alt () FF0)
(declare-fun _76_alt () FF0)
(declare-fun _75_alt () FF0)
(declare-fun _53_alt () FF0)
(declare-fun _74_alt () FF0)
(declare-fun _39_alt () FF0)
(declare-fun _73_alt () FF0)
(declare-fun _58_alt () FF0)
(declare-fun _72_alt () FF0)
(declare-fun _69_alt () FF0)
(declare-fun _70_alt () FF0)
(declare-fun _46_alt () FF0)
(declare-fun _43_alt () FF0)
(declare-fun _0_alt () FF0)
(declare-fun _68_alt () FF0)
(declare-fun _67_alt () FF0)
(declare-fun _64_alt () FF0)
(declare-fun _66_alt () FF0)
(declare-fun _1_alt () FF0)
(declare-fun _65_alt () FF0)
(declare-fun _37_alt () FF0)
(declare-fun _15_alt () FF0)
(declare-fun _63_alt () FF0)
(declare-fun _12_alt () FF0)
(declare-fun _11_alt () FF0)
(declare-fun _62_alt () FF0)
(declare-fun _61_alt () FF0)
(declare-fun _34_alt () FF0)
(declare-fun _60_alt () FF0)
(declare-fun _6_alt () FF0)
(declare-fun _5_alt () FF0)
(declare-fun _27_alt () FF0)
(declare-fun _52_alt () FF0)
(declare-fun _51_alt () FF0)
(declare-fun _50_alt () FF0)
(declare-fun _49_alt () FF0)
(declare-fun _40_alt () FF0)
(declare-fun _44_alt () FF0)
(declare-fun _21_alt () FF0)
(declare-fun _42_alt () FF0)
(declare-fun _35_alt () FF0)
(declare-fun _41_alt () FF0)
(declare-fun _26_alt () FF0)
(declare-fun _33_alt () FF0)
(declare-fun _32_alt () FF0)
(declare-fun _31_alt () FF0)
(declare-fun _30_alt () FF0)
(declare-fun _29_alt () FF0)
(declare-fun _25_alt () FF0)
(declare-fun _24_alt () FF0)
(declare-fun _23_alt () FF0)
(declare-fun _22_alt () FF0)
(declare-fun _20_alt () FF0)
(declare-fun _19_alt () FF0)
(declare-fun _18_alt () FF0)
(declare-fun _17_alt () FF0)
(declare-fun out () FF0)
(declare-fun _76 () FF0)
(declare-fun _75 () FF0)
(declare-fun _53 () FF0)
(declare-fun _74 () FF0)
(declare-fun _39 () FF0)
(declare-fun _73 () FF0)
(declare-fun _58 () FF0)
(declare-fun _72 () FF0)
(declare-fun _69 () FF0)
(declare-fun _70 () FF0)
(declare-fun _46 () FF0)
(declare-fun _43 () FF0)
(declare-fun _0 () FF0)
(declare-fun _68 () FF0)
(declare-fun _67 () FF0)
(declare-fun _64 () FF0)
(declare-fun _66 () FF0)
(declare-fun _1 () FF0)
(declare-fun _65 () FF0)
(declare-fun _37 () FF0)
(declare-fun _15 () FF0)
(declare-fun _63 () FF0)
(declare-fun _12 () FF0)
(declare-fun _11 () FF0)
(declare-fun _62 () FF0)
(declare-fun _61 () FF0)
(declare-fun _34 () FF0)
(declare-fun _60 () FF0)
(declare-fun _6 () FF0)
(declare-fun _5 () FF0)
(declare-fun _27 () FF0)
(declare-fun _52 () FF0)
(declare-fun _51 () FF0)
(declare-fun _50 () FF0)
(declare-fun _49 () FF0)
(declare-fun _40 () FF0)
(declare-fun _44 () FF0)
(declare-fun _21 () FF0)
(declare-fun _42 () FF0)
(declare-fun _35 () FF0)
(declare-fun _41 () FF0)
(declare-fun _26 () FF0)
(declare-fun _33 () FF0)
(declare-fun _32 () FF0)
(declare-fun _31 () FF0)
(declare-fun _30 () FF0)
(declare-fun _29 () FF0)
(declare-fun _25 () FF0)
(declare-fun _24 () FF0)
(declare-fun _23 () FF0)
(declare-fun _22 () FF0)
(declare-fun _20 () FF0)
(declare-fun _19 () FF0)
(declare-fun _18 () FF0)
(declare-fun _17 () FF0)
(assert 
  (let ((let0 out_alt))
  (let ((let1 _76_alt))
  (let ((let2 (= let1 let0)))
  (let ((let3 (as ff1 FF0)))
  (let ((let4 (as ff52435875175126190479447740508185965837690552500527637822603658699938581184512 FF0)))
  (let ((let5 (ff.mul let1 let4)))
  (let ((let6 _75_alt))
  (let ((let7 _53_alt))
  (let ((let8 (ff.mul let7 let4)))
  (let ((let9 (ff.add let8 let6 let5 let3)))
  (let ((let10 (ff.add let8 let3)))
  (let ((let11 (ff.mul let6 let10)))
  (let ((let12 (= let11 let9)))
  (let ((let13 (ff.mul let6 let4)))
  (let ((let14 _74_alt))
  (let ((let15 _39_alt))
  (let ((let16 (ff.mul let15 let4)))
  (let ((let17 (ff.add let16 let14 let13 let3)))
  (let ((let18 (ff.add let16 let3)))
  (let ((let19 (ff.mul let14 let18)))
  (let ((let20 (= let19 let17)))
  (let ((let21 (ff.mul let14 let4)))
  (let ((let22 _73_alt))
  (let ((let23 _58_alt))
  (let ((let24 (ff.mul let23 let4)))
  (let ((let25 (ff.add let24 let22 let21 let3)))
  (let ((let26 (ff.add let24 let3)))
  (let ((let27 (ff.mul let22 let26)))
  (let ((let28 (= let27 let25)))
  (let ((let29 (ff.mul let22 let4)))
  (let ((let30 _72_alt))
  (let ((let31 _69_alt))
  (let ((let32 (ff.add let31 let30 let29)))
  (let ((let33 (ff.mul let30 let31)))
  (let ((let34 (= let33 let32)))
  (let ((let35 (ff.mul let30 let4)))
  (let ((let36 _70_alt))
  (let ((let37 _46_alt))
  (let ((let38 (ff.add let37 let36 let35)))
  (let ((let39 (ff.mul let37 let36)))
  (let ((let40 (= let39 let38)))
  (let ((let41 (ff.mul let36 let4)))
  (let ((let42 _43_alt))
  (let ((let43 _0_alt))
  (let ((let44 (ff.mul let43 let4)))
  (let ((let45 (ff.add let44 let42 let41 let3)))
  (let ((let46 (ff.add let44 let3)))
  (let ((let47 (ff.mul let46 let42)))
  (let ((let48 (= let47 let45)))
  (let ((let49 (ff.mul let31 let4)))
  (let ((let50 _68_alt))
  (let ((let51 (ff.add let7 let50 let49)))
  (let ((let52 (ff.mul let50 let7)))
  (let ((let53 (= let52 let51)))
  (let ((let54 (ff.mul let50 let4)))
  (let ((let55 _67_alt))
  (let ((let56 (ff.add let7 let55 let54)))
  (let ((let57 (ff.mul let55 let7)))
  (let ((let58 (= let57 let56)))
  (let ((let59 _64_alt))
  (let ((let60 _66_alt))
  (let ((let61 (ff.mul let60 let59)))
  (let ((let62 (= let61 let55)))
  (let ((let63 _1_alt))
  (let ((let64 _65_alt))
  (let ((let65 (ff.mul let64 let63)))
  (let ((let66 (= let65 let60)))
  (let ((let67 _37_alt))
  (let ((let68 (ff.mul let67 let4)))
  (let ((let69 (ff.add let68 let3)))
  (let ((let70 (ff.mul let69 let42)))
  (let ((let71 (= let70 let64)))
  (let ((let72 _15_alt))
  (let ((let73 (ff.mul let72 let4)))
  (let ((let74 (ff.add let73 let3)))
  (let ((let75 _63_alt))
  (let ((let76 (ff.mul let75 let74)))
  (let ((let77 (= let76 let59)))
  (let ((let78 _12_alt))
  (let ((let79 _11_alt))
  (let ((let80 (ff.add let79 let78)))
  (let ((let81 _62_alt))
  (let ((let82 (ff.mul let81 let80)))
  (let ((let83 (= let82 let75)))
  (let ((let84 (ff.mul let78 let4)))
  (let ((let85 (ff.mul let79 let4)))
  (let ((let86 (ff.add let85 let84 let3)))
  (let ((let87 _61_alt))
  (let ((let88 (ff.mul let87 let86)))
  (let ((let89 (= let88 let81)))
  (let ((let90 _34_alt))
  (let ((let91 _60_alt))
  (let ((let92 (ff.mul let91 let90)))
  (let ((let93 (= let92 let87)))
  (let ((let94 _6_alt))
  (let ((let95 _5_alt))
  (let ((let96 (ff.add let95 let94)))
  (let ((let97 _27_alt))
  (let ((let98 (ff.mul let97 let96)))
  (let ((let99 (= let98 let91)))
  (let ((let100 (ff.add let15 let8)))
  (let ((let101 (ff.mul let100 let100)))
  (let ((let102 (= let101 let23)))
  (let ((let103 _52_alt))
  (let ((let104 (ff.add let68 let103 let8 let3)))
  (let ((let105 (ff.mul let103 let69)))
  (let ((let106 (= let105 let104)))
  (let ((let107 (ff.mul let103 let4)))
  (let ((let108 _51_alt))
  (let ((let109 (ff.add let15 let108 let107)))
  (let ((let110 (ff.mul let108 let15)))
  (let ((let111 (= let110 let109)))
  (let ((let112 (ff.mul let108 let4)))
  (let ((let113 _50_alt))
  (let ((let114 (ff.add let79 let78 let113 let112)))
  (let ((let115 (ff.mul let113 let80)))
  (let ((let116 (= let115 let114)))
  (let ((let117 (ff.mul let113 let4)))
  (let ((let118 _49_alt))
  (let ((let119 _40_alt))
  (let ((let120 (ff.add let119 let118 let117)))
  (let ((let121 (ff.mul let118 let119)))
  (let ((let122 (= let121 let120)))
  (let ((let123 (ff.mul let118 let4)))
  (let ((let124 (ff.mul let37 let4)))
  (let ((let125 (ff.add let97 let124 let123 let3)))
  (let ((let126 (ff.add let124 let3)))
  (let ((let127 (ff.mul let97 let126)))
  (let ((let128 (= let127 let125)))
  (let ((let129 _44_alt))
  (let ((let130 (ff.mul let129 let4)))
  (let ((let131 (ff.mul let119 let4)))
  (let ((let132 (ff.add let131 let130 let3)))
  (let ((let133 (ff.mul let132 let132)))
  (let ((let134 (= let133 let37)))
  (let ((let135 (ff.add let131 let42)))
  (let ((let136 (ff.mul let135 let135)))
  (let ((let137 (= let136 let129)))
  (let ((let138 _21_alt))
  (let ((let139 _42_alt))
  (let ((let140 (ff.mul let139 let138)))
  (let ((let141 (= let140 let42)))
  (let ((let142 _35_alt))
  (let ((let143 (ff.mul let142 let4)))
  (let ((let144 (ff.add let143 let3)))
  (let ((let145 _41_alt))
  (let ((let146 (ff.mul let145 let144)))
  (let ((let147 (= let146 let139)))
  (let ((let148 (ff.mul let63 let90)))
  (let ((let149 (= let148 let145)))
  (let ((let150 _26_alt))
  (let ((let151 (ff.add let44 let150 let16 let3)))
  (let ((let152 (ff.mul let46 let150)))
  (let ((let153 (= let152 let151)))
  (let ((let154 (ff.add let97 let143)))
  (let ((let155 (ff.mul let154 let154)))
  (let ((let156 (= let155 let67)))
  (let ((let157 (ff.add let79 let78 let90 let4)))
  (let ((let158 (ff.mul let157 let157)))
  (let ((let159 (= let158 let142)))
  (let ((let160 (ff.mul let90 let4)))
  (let ((let161 _33_alt))
  (let ((let162 (ff.add let73 let161 let160 let3)))
  (let ((let163 (ff.mul let161 let74)))
  (let ((let164 (= let163 let162)))
  (let ((let165 (ff.mul let161 let4)))
  (let ((let166 _32_alt))
  (let ((let167 (ff.add let150 let166 let165)))
  (let ((let168 (ff.mul let166 let150)))
  (let ((let169 (= let168 let167)))
  (let ((let170 (ff.mul let166 let4)))
  (let ((let171 _31_alt))
  (let ((let172 (ff.add let97 let171 let170)))
  (let ((let173 (ff.mul let171 let97)))
  (let ((let174 (= let173 let172)))
  (let ((let175 (ff.mul let171 let4)))
  (let ((let176 _30_alt))
  (let ((let177 (ff.add let97 let176 let175)))
  (let ((let178 (ff.mul let176 let97)))
  (let ((let179 (= let178 let177)))
  (let ((let180 (ff.mul let176 let4)))
  (let ((let181 (as ff2 FF0)))
  (let ((let182 _29_alt))
  (let ((let183 (ff.mul let182 let181)))
  (let ((let184 (ff.add let183 let180)))
  (let ((let185 (ff.mul let182 let182)))
  (let ((let186 (= let185 let184)))
  (let ((let187 (ff.mul let182 let4)))
  (let ((let188 (ff.add let72 let150 let187)))
  (let ((let189 (ff.mul let72 let150)))
  (let ((let190 (= let189 let188)))
  (let ((let191 (ff.mul let86 let150)))
  (let ((let192 (= let191 let97)))
  (let ((let193 _25_alt))
  (let ((let194 (ff.mul let193 let72)))
  (let ((let195 (= let194 let150)))
  (let ((let196 _24_alt))
  (let ((let197 (ff.mul let196 let86)))
  (let ((let198 (= let197 let193)))
  (let ((let199 _23_alt))
  (let ((let200 (ff.mul let199 let86)))
  (let ((let201 (= let200 let196)))
  (let ((let202 _22_alt))
  (let ((let203 (ff.mul let202 let74)))
  (let ((let204 (= let203 let199)))
  (let ((let205 (ff.mul let138 let138)))
  (let ((let206 (= let205 let202)))
  (let ((let207 _20_alt))
  (let ((let208 (ff.mul let207 let80)))
  (let ((let209 (= let208 let138)))
  (let ((let210 _19_alt))
  (let ((let211 (ff.mul let210 let63)))
  (let ((let212 (= let211 let207)))
  (let ((let213 _18_alt))
  (let ((let214 (ff.mul let213 let86)))
  (let ((let215 (= let214 let210)))
  (let ((let216 _17_alt))
  (let ((let217 (ff.mul let216 let86)))
  (let ((let218 (= let217 let213)))
  (let ((let219 (ff.mul let43 let72)))
  (let ((let220 (= let219 let216)))
  (let ((let221 (ff.add let95 let94 let85 let84 let73 let3)))
  (let ((let222 (ff.mul let96 let86)))
  (let ((let223 (= let222 let221)))
  (let ((let224 (ff.mul let94 let4)))
  (let ((let225 (ff.mul let95 let4)))
  (let ((let226 (ff.add let225 let224 let3)))
  (let ((let227 (ff.mul let226 let96)))
  (let ((let228 (= let227 let78)))
  (let ((let229 (ff.mul let96 let63)))
  (let ((let230 (= let229 let79)))
  (let ((let231 (ff.mul let46 let43)))
  (let ((let232 (= let231 let94)))
  (let ((let233 (ff.mul let43 let63)))
  (let ((let234 (= let233 let95)))
  (let ((let235 (ff.mul let63 let63)))
  (let ((let236 (= let235 let63)))
  (let ((let237 (ff.mul let43 let43)))
  (let ((let238 (= let237 let43)))
  (let ((let239 (and let238 let236 let234 let232 let230 let228 let223 let220 let218 let215 let212 let209 let206 let204 let201 let198 let195 let192 let190 let186 let179 let174 let169 let164 let159 let156 let153 let149 let147 let141 let137 let134 let128 let122 let116 let111 let106 let102 let99 let93 let89 let83 let77 let71 let66 let62 let58 let53 let48 let40 let34 let28 let20 let12 let2)))
  (let ((let240 out))
  (let ((let241 _76))
  (let ((let242 (= let241 let240)))
  (let ((let243 (ff.mul let241 let4)))
  (let ((let244 _75))
  (let ((let245 _53))
  (let ((let246 (ff.mul let245 let4)))
  (let ((let247 (ff.add let246 let244 let243 let3)))
  (let ((let248 (ff.add let246 let3)))
  (let ((let249 (ff.mul let244 let248)))
  (let ((let250 (= let249 let247)))
  (let ((let251 (ff.mul let244 let4)))
  (let ((let252 _74))
  (let ((let253 _39))
  (let ((let254 (ff.mul let253 let4)))
  (let ((let255 (ff.add let254 let252 let251 let3)))
  (let ((let256 (ff.add let254 let3)))
  (let ((let257 (ff.mul let252 let256)))
  (let ((let258 (= let257 let255)))
  (let ((let259 (ff.mul let252 let4)))
  (let ((let260 _73))
  (let ((let261 _58))
  (let ((let262 (ff.mul let261 let4)))
  (let ((let263 (ff.add let262 let260 let259 let3)))
  (let ((let264 (ff.add let262 let3)))
  (let ((let265 (ff.mul let260 let264)))
  (let ((let266 (= let265 let263)))
  (let ((let267 (ff.mul let260 let4)))
  (let ((let268 _72))
  (let ((let269 _69))
  (let ((let270 (ff.add let269 let268 let267)))
  (let ((let271 (ff.mul let268 let269)))
  (let ((let272 (= let271 let270)))
  (let ((let273 (ff.mul let268 let4)))
  (let ((let274 _70))
  (let ((let275 _46))
  (let ((let276 (ff.add let275 let274 let273)))
  (let ((let277 (ff.mul let275 let274)))
  (let ((let278 (= let277 let276)))
  (let ((let279 (ff.mul let274 let4)))
  (let ((let280 _43))
  (let ((let281 _0))
  (let ((let282 (ff.mul let281 let4)))
  (let ((let283 (ff.add let282 let280 let279 let3)))
  (let ((let284 (ff.add let282 let3)))
  (let ((let285 (ff.mul let284 let280)))
  (let ((let286 (= let285 let283)))
  (let ((let287 (ff.mul let269 let4)))
  (let ((let288 _68))
  (let ((let289 (ff.add let245 let288 let287)))
  (let ((let290 (ff.mul let288 let245)))
  (let ((let291 (= let290 let289)))
  (let ((let292 (ff.mul let288 let4)))
  (let ((let293 _67))
  (let ((let294 (ff.add let245 let293 let292)))
  (let ((let295 (ff.mul let293 let245)))
  (let ((let296 (= let295 let294)))
  (let ((let297 _64))
  (let ((let298 _66))
  (let ((let299 (ff.mul let298 let297)))
  (let ((let300 (= let299 let293)))
  (let ((let301 _1))
  (let ((let302 _65))
  (let ((let303 (ff.mul let302 let301)))
  (let ((let304 (= let303 let298)))
  (let ((let305 _37))
  (let ((let306 (ff.mul let305 let4)))
  (let ((let307 (ff.add let306 let3)))
  (let ((let308 (ff.mul let307 let280)))
  (let ((let309 (= let308 let302)))
  (let ((let310 _15))
  (let ((let311 (ff.mul let310 let4)))
  (let ((let312 (ff.add let311 let3)))
  (let ((let313 _63))
  (let ((let314 (ff.mul let313 let312)))
  (let ((let315 (= let314 let297)))
  (let ((let316 _12))
  (let ((let317 _11))
  (let ((let318 (ff.add let317 let316)))
  (let ((let319 _62))
  (let ((let320 (ff.mul let319 let318)))
  (let ((let321 (= let320 let313)))
  (let ((let322 (ff.mul let316 let4)))
  (let ((let323 (ff.mul let317 let4)))
  (let ((let324 (ff.add let323 let322 let3)))
  (let ((let325 _61))
  (let ((let326 (ff.mul let325 let324)))
  (let ((let327 (= let326 let319)))
  (let ((let328 _34))
  (let ((let329 _60))
  (let ((let330 (ff.mul let329 let328)))
  (let ((let331 (= let330 let325)))
  (let ((let332 _6))
  (let ((let333 _5))
  (let ((let334 (ff.add let333 let332)))
  (let ((let335 _27))
  (let ((let336 (ff.mul let335 let334)))
  (let ((let337 (= let336 let329)))
  (let ((let338 (ff.add let253 let246)))
  (let ((let339 (ff.mul let338 let338)))
  (let ((let340 (= let339 let261)))
  (let ((let341 _52))
  (let ((let342 (ff.add let306 let341 let246 let3)))
  (let ((let343 (ff.mul let341 let307)))
  (let ((let344 (= let343 let342)))
  (let ((let345 (ff.mul let341 let4)))
  (let ((let346 _51))
  (let ((let347 (ff.add let253 let346 let345)))
  (let ((let348 (ff.mul let346 let253)))
  (let ((let349 (= let348 let347)))
  (let ((let350 (ff.mul let346 let4)))
  (let ((let351 _50))
  (let ((let352 (ff.add let317 let316 let351 let350)))
  (let ((let353 (ff.mul let351 let318)))
  (let ((let354 (= let353 let352)))
  (let ((let355 (ff.mul let351 let4)))
  (let ((let356 _49))
  (let ((let357 _40))
  (let ((let358 (ff.add let357 let356 let355)))
  (let ((let359 (ff.mul let356 let357)))
  (let ((let360 (= let359 let358)))
  (let ((let361 (ff.mul let356 let4)))
  (let ((let362 (ff.mul let275 let4)))
  (let ((let363 (ff.add let335 let362 let361 let3)))
  (let ((let364 (ff.add let362 let3)))
  (let ((let365 (ff.mul let335 let364)))
  (let ((let366 (= let365 let363)))
  (let ((let367 _44))
  (let ((let368 (ff.mul let367 let4)))
  (let ((let369 (ff.mul let357 let4)))
  (let ((let370 (ff.add let369 let368 let3)))
  (let ((let371 (ff.mul let370 let370)))
  (let ((let372 (= let371 let275)))
  (let ((let373 (ff.add let369 let280)))
  (let ((let374 (ff.mul let373 let373)))
  (let ((let375 (= let374 let367)))
  (let ((let376 _21))
  (let ((let377 _42))
  (let ((let378 (ff.mul let377 let376)))
  (let ((let379 (= let378 let280)))
  (let ((let380 _35))
  (let ((let381 (ff.mul let380 let4)))
  (let ((let382 (ff.add let381 let3)))
  (let ((let383 _41))
  (let ((let384 (ff.mul let383 let382)))
  (let ((let385 (= let384 let377)))
  (let ((let386 (ff.mul let301 let328)))
  (let ((let387 (= let386 let383)))
  (let ((let388 _26))
  (let ((let389 (ff.add let282 let388 let254 let3)))
  (let ((let390 (ff.mul let284 let388)))
  (let ((let391 (= let390 let389)))
  (let ((let392 (ff.add let335 let381)))
  (let ((let393 (ff.mul let392 let392)))
  (let ((let394 (= let393 let305)))
  (let ((let395 (ff.add let317 let316 let328 let4)))
  (let ((let396 (ff.mul let395 let395)))
  (let ((let397 (= let396 let380)))
  (let ((let398 (ff.mul let328 let4)))
  (let ((let399 _33))
  (let ((let400 (ff.add let311 let399 let398 let3)))
  (let ((let401 (ff.mul let399 let312)))
  (let ((let402 (= let401 let400)))
  (let ((let403 (ff.mul let399 let4)))
  (let ((let404 _32))
  (let ((let405 (ff.add let388 let404 let403)))
  (let ((let406 (ff.mul let404 let388)))
  (let ((let407 (= let406 let405)))
  (let ((let408 (ff.mul let404 let4)))
  (let ((let409 _31))
  (let ((let410 (ff.add let335 let409 let408)))
  (let ((let411 (ff.mul let409 let335)))
  (let ((let412 (= let411 let410)))
  (let ((let413 (ff.mul let409 let4)))
  (let ((let414 _30))
  (let ((let415 (ff.add let335 let414 let413)))
  (let ((let416 (ff.mul let414 let335)))
  (let ((let417 (= let416 let415)))
  (let ((let418 (ff.mul let414 let4)))
  (let ((let419 _29))
  (let ((let420 (ff.mul let419 let181)))
  (let ((let421 (ff.add let420 let418)))
  (let ((let422 (ff.mul let419 let419)))
  (let ((let423 (= let422 let421)))
  (let ((let424 (ff.mul let419 let4)))
  (let ((let425 (ff.add let310 let388 let424)))
  (let ((let426 (ff.mul let310 let388)))
  (let ((let427 (= let426 let425)))
  (let ((let428 (ff.mul let324 let388)))
  (let ((let429 (= let428 let335)))
  (let ((let430 _25))
  (let ((let431 (ff.mul let430 let310)))
  (let ((let432 (= let431 let388)))
  (let ((let433 _24))
  (let ((let434 (ff.mul let433 let324)))
  (let ((let435 (= let434 let430)))
  (let ((let436 _23))
  (let ((let437 (ff.mul let436 let324)))
  (let ((let438 (= let437 let433)))
  (let ((let439 _22))
  (let ((let440 (ff.mul let439 let312)))
  (let ((let441 (= let440 let436)))
  (let ((let442 (ff.mul let376 let376)))
  (let ((let443 (= let442 let439)))
  (let ((let444 _20))
  (let ((let445 (ff.mul let444 let318)))
  (let ((let446 (= let445 let376)))
  (let ((let447 _19))
  (let ((let448 (ff.mul let447 let301)))
  (let ((let449 (= let448 let444)))
  (let ((let450 _18))
  (let ((let451 (ff.mul let450 let324)))
  (let ((let452 (= let451 let447)))
  (let ((let453 _17))
  (let ((let454 (ff.mul let453 let324)))
  (let ((let455 (= let454 let450)))
  (let ((let456 (ff.mul let281 let310)))
  (let ((let457 (= let456 let453)))
  (let ((let458 (ff.add let333 let332 let323 let322 let311 let3)))
  (let ((let459 (ff.mul let334 let324)))
  (let ((let460 (= let459 let458)))
  (let ((let461 (ff.mul let332 let4)))
  (let ((let462 (ff.mul let333 let4)))
  (let ((let463 (ff.add let462 let461 let3)))
  (let ((let464 (ff.mul let463 let334)))
  (let ((let465 (= let464 let316)))
  (let ((let466 (ff.mul let334 let301)))
  (let ((let467 (= let466 let317)))
  (let ((let468 (ff.mul let284 let281)))
  (let ((let469 (= let468 let332)))
  (let ((let470 (ff.mul let281 let301)))
  (let ((let471 (= let470 let333)))
  (let ((let472 (ff.mul let301 let301)))
  (let ((let473 (= let472 let301)))
  (let ((let474 (ff.mul let281 let281)))
  (let ((let475 (= let474 let281)))
  (let ((let476 (and let475 let473 let471 let469 let467 let465 let460 let457 let455 let452 let449 let446 let443 let441 let438 let435 let432 let429 let427 let423 let417 let412 let407 let402 let397 let394 let391 let387 let385 let379 let375 let372 let366 let360 let354 let349 let344 let340 let337 let331 let327 let321 let315 let309 let304 let300 let296 let291 let286 let278 let272 let266 let258 let250 let242)))
  (let ((let477 (= let240 let0)))
  (let ((let478 (not let477)))
  (let ((let479 (= let281 let43)))
  (let ((let480 (= let301 let63)))
  (let ((let481 (and let480 let479)))
  (let ((let482 (and let481 let478 let476 let239)))
  let482
)))))))))))))))))))))))))))))))))))))))))))))))))))))))))))))))))))))))))))))))))))))))))))))))))))))))))))))))))))))))))))))))))))))))))))))))))))))))))))))))))))))))))))))))))))))))))))))))))))))))))))))))))))))))))))))))))))))))))))))))))))))))))))))))))))))))))))))))))))))))))))))))))))))))))))))))))))))))))))))))))))))))))))))))))))))))))))))))))))))))))))))))))))))))))))))))))))))))))))))))))))))))))))))))))))))))))))))))))))))))))))))))))))))))))))))))))))))))))))))))))))
)
(check-sat)
